p wcnf 118 59 60 
1 37 110 0 
1 31 -89 0 
1 42 77 0 
1 -43 -10 0 
1 26 29 0 
1 109 67 0 
1 85 24 0 
1 -76 -40 0 
1 40 63 0 
1 -111 -1 0 
1 11 29 0 
1 -41 -83 0 
1 102 -8 0 
1 59 -88 0 
1 74 -22 0 
1 62 -35 0 
1 -45 -114 0 
1 60 -105 0 
1 31 28 0 
1 88 -25 0 
1 -103 -64 0 
1 102 -83 0 
1 -103 -55 0 
1 72 -110 0 
1 90 39 0 
1 -6 -30 0 
1 -112 -109 0 
1 10 81 0 
1 -50 -86 0 
1 -95 -58 0 
1 50 -111 0 
1 -91 -33 0 
1 12 52 0 
1 2 16 0 
1 25 29 0 
1 40 -17 0 
1 37 -68 0 
1 37 32 0 
1 44 10 0 
1 -68 -100 0 
1 79 19 0 
1 109 81 0 
1 -111 -27 0 
1 -100 -48 0 
1 30 -65 0 
1 85 116 0 
1 102 6 0 
1 -38 -11 0 
1 -11 -30 0 
1 -37 -73 0 
1 104 18 0 
1 109 -57 0 
1 83 -8 0 
1 -108 21 0 
1 102 77 0 
1 111 -3 0 
1 31 -1 0 
1 -17 -42 0 
1 57 79 0 
